<?xml version = "1.0" encoding="UTF-8" standalone="yes"?>
<CPLEXSolution version="1.2">
 <header
   problemName="1_rho__E_6_2_2"
   solutionName="incumbent"
   solutionIndex="-1"
   objectiveValue="12"
   solutionTypeValue="3"
   solutionTypeString="primal"
   solutionStatusValue="101"
   solutionStatusString="integer optimal solution"
   solutionMethodString="mip"
   primalFeasible="1"
   dualFeasible="1"
   MIPNodes="0"
   MIPIterations="23"
   writeLevel="1"/>
 <quality
   epInt="1.0000000000000001e-05"
   epRHS="9.9999999999999995e-07"
   maxIntInfeas="3.1086244689504383e-15"
   maxPrimalInfeas="1.8207657603852567e-14"
   maxX="12"
   maxSlack="2"/>
 <linearConstraints>
  <constraint name="R_def" index="0" slack="4.8849813083506888e-15"/>
  <constraint name="val_cible" index="1" slack="0"/>
  <constraint name="BkI_48_0" index="2" slack="9.3258734068513149e-15"/>
  <constraint name="BkI_48_1" index="3" slack="2.6645352591003757e-15"/>
  <constraint name="BkI_40_0" index="4" slack="5.3290705182007514e-15"/>
  <constraint name="BkI_40_1" index="5" slack="5.3290705182007514e-15"/>
  <constraint name="BkI_24_0" index="6" slack="6.2172489379008766e-15"/>
  <constraint name="BkI_24_1" index="7" slack="4.4408920985006262e-15"/>
  <constraint name="BkI_36_0" index="8" slack="-4.4408920985006262e-16"/>
  <constraint name="BkI_36_1" index="9" slack="9.7699626167013776e-15"/>
  <constraint name="BkI_20_0" index="10" slack="-4.4408920985006262e-16"/>
  <constraint name="BkI_20_1" index="11" slack="1.021405182655144e-14"/>
  <constraint name="BkI_12_0" index="12" slack="3.1086244689504383e-15"/>
  <constraint name="BkI_12_1" index="13" slack="6.6613381477509392e-15"/>
  <constraint name="BkI_34_0" index="14" slack="2.6645352591003757e-15"/>
  <constraint name="BkI_34_1" index="15" slack="6.2172489379008766e-15"/>
  <constraint name="BkI_18_0" index="16" slack="-5.3290705182007514e-15"/>
  <constraint name="BkI_18_1" index="17" slack="1.3766765505351941e-14"/>
  <constraint name="BkI_10_0" index="18" slack="8.8817841970012523e-16"/>
  <constraint name="BkI_10_1" index="19" slack="8.4376949871511897e-15"/>
  <constraint name="BkI_6_0" index="20" slack="1.8207657603852567e-14"/>
  <constraint name="BkI_6_1" index="21" slack="-7.5495165674510645e-15"/>
  <constraint name="BkI_33_0" index="22" slack="2.6645352591003757e-15"/>
  <constraint name="BkI_33_1" index="23" slack="5.773159728050814e-15"/>
  <constraint name="BkI_17_0" index="24" slack="1.021405182655144e-14"/>
  <constraint name="BkI_17_1" index="25" slack="-8.8817841970012523e-16"/>
  <constraint name="BkI_9_0" index="26" slack="4.4408920985006262e-15"/>
  <constraint name="BkI_9_1" index="27" slack="4.4408920985006262e-15"/>
  <constraint name="BkI_5_0" index="28" slack="-8.8817841970012523e-16"/>
  <constraint name="BkI_5_1" index="29" slack="1.1990408665951691e-14"/>
  <constraint name="BkI_3_0" index="30" slack="3.1086244689504383e-15"/>
  <constraint name="BkI_3_1" index="31" slack="6.6613381477509392e-15"/>
  <constraint name="QstargeqQ1" index="32" slack="-2"/>
  <constraint name="QstargeqQ2" index="33" slack="-2"/>
  <constraint name="QstargeqQ3" index="34" slack="-2"/>
  <constraint name="QstargeqQ4" index="35" slack="-2"/>
  <constraint name="QstargeqQ5" index="36" slack="-2"/>
  <constraint name="QstargeqQ6" index="37" slack="-2"/>
  <constraint name="QstargeqQ7" index="38" slack="-1.0000000000000024"/>
  <constraint name="QstargeqQ8" index="39" slack="-2"/>
  <constraint name="QstargeqQ9" index="40" slack="-2"/>
  <constraint name="QstargeqQ10" index="41" slack="-2"/>
  <constraint name="QstargeqQ11" index="42" slack="-0.99999999999999956"/>
  <constraint name="QstargeqQ12" index="43" slack="-2"/>
  <constraint name="QstargeqQ13" index="44" slack="-0.99999999999999933"/>
  <constraint name="QstargeqQ14" index="45" slack="-1.0000000000000031"/>
  <constraint name="QstargeqQ15" index="46" slack="-2"/>
  <constraint name="QstargeqQ16" index="47" slack="-2"/>
  <constraint name="QstargeqQ17" index="48" slack="-2"/>
  <constraint name="QstargeqQ18" index="49" slack="-2"/>
  <constraint name="QstargeqQ19" index="50" slack="-0.99999999999999956"/>
  <constraint name="QstargeqQ20" index="51" slack="-2"/>
  <constraint name="QstargeqQ21" index="52" slack="-0.99999999999999978"/>
  <constraint name="QstargeqQ22" index="53" slack="-1.0000000000000007"/>
  <constraint name="QstargeqQ23" index="54" slack="-2"/>
  <constraint name="QstargeqQ24" index="55" slack="-2"/>
  <constraint name="QstargeqQ25" index="56" slack="-1.0000000000000027"/>
  <constraint name="QstargeqQ26" index="57" slack="-0.999999999999998"/>
  <constraint name="QstargeqQ27" index="58" slack="-2"/>
  <constraint name="QstargeqQ28" index="59" slack="-0.99999999999999978"/>
  <constraint name="QstargeqQ29" index="60" slack="-2"/>
  <constraint name="QstargeqQ30" index="61" slack="-2"/>
  <constraint name="QstargeqQ31" index="62" slack="-2"/>
 </linearConstraints>
 <variables>
  <variable name="R" index="0" value="12"/>
  <variable name="Q000000" index="1" value="2"/>
  <variable name="Q000001" index="2" value="-0"/>
  <variable name="Q000010" index="3" value="-0"/>
  <variable name="Q000011" index="4" value="0"/>
  <variable name="Q000100" index="5" value="0"/>
  <variable name="Q000101" index="6" value="-0"/>
  <variable name="Q000110" index="7" value="0"/>
  <variable name="Q000111" index="8" value="0.99999999999999756"/>
  <variable name="Q001000" index="9" value="-0"/>
  <variable name="Q001001" index="10" value="-0"/>
  <variable name="Q001010" index="11" value="-0"/>
  <variable name="Q001011" index="12" value="1.0000000000000004"/>
  <variable name="Q001100" index="13" value="-0"/>
  <variable name="Q001101" index="14" value="1.0000000000000007"/>
  <variable name="Q001110" index="15" value="0.99999999999999689"/>
  <variable name="Q001111" index="16" value="0"/>
  <variable name="Q010000" index="17" value="-0"/>
  <variable name="Q010001" index="18" value="-0"/>
  <variable name="Q010010" index="19" value="-0"/>
  <variable name="Q010011" index="20" value="1.0000000000000004"/>
  <variable name="Q010100" index="21" value="-0"/>
  <variable name="Q010101" index="22" value="1.0000000000000002"/>
  <variable name="Q010110" index="23" value="0.99999999999999933"/>
  <variable name="Q010111" index="24" value="0"/>
  <variable name="Q011000" index="25" value="-0"/>
  <variable name="Q011001" index="26" value="0.99999999999999734"/>
  <variable name="Q011010" index="27" value="1.000000000000002"/>
  <variable name="Q011011" index="28" value="-0"/>
  <variable name="Q011100" index="29" value="1.0000000000000002"/>
  <variable name="Q011101" index="30" value="-0"/>
  <variable name="Q011110" index="31" value="-0"/>
  <variable name="Q011111" index="32" value="-0"/>
 </variables>
 <objectiveValues>
  <objective index="0" name="" value="12"/>
 </objectiveValues>
</CPLEXSolution>
